c Lingeling SAT Solver
c 
c Version azf 92032848c138b2f33629ad24394d60a3787a1046
c 
c Copyright (C) 2010-2014 Armin Biere JKU Linz Austria.
c All rights reserved.
c 
c released Don Mai 22 22:08:00 CEST 2014
c compiled Mon Oct  6 05:55:43 PDT 2014
c 
c gcc (Ubuntu 4.8.2-19ubuntu1) 4.8.2
c -Wall -O3 -DNDBLSCR -DNLGLOG -DNDEBUG -DNCHKSOL -DNLGLPICOSAT -DNLGLDRUPLIG
c -DNLGLYALSAT
c Linux ubuntu 3.13.0-32-generic x86_64
c 
c reading input file benchmark-sat/translations/gc-1-Insertions_4-4.cnf
c no embedded options
c found 'p cnf 268 1397' header
c read 268 variables, 1397 clauses, 2928 literals in 0.00 seconds
c 
c  seconds         irredundant          redundant clauses agility   height
c          variables clauses conflicts large ternary binary    glue         MB
c 
c S    0.0     268     1397         0       0      0     0   0  0.0   0.0    0
c S    1.0     201      928     32391    2627      0   201  28 10.8  19.6    1
c S    2.0     201      928     64398    8459      0   201  28 11.1  19.6    2
c S    5.0     201      928    148300    7982      0   201  29 11.2  18.8    2
c S   10.1     201      928    290544   14378      0   201  29 10.8  17.5    3
c S   20.1     201      928    488536   27761      9   201  29 10.4  16.2    5
c S   30.0     200      920    744478    9453     13   200  28 10.3  15.5    2
c S   40.1     200      920    948691   32006     13   200  29 10.3  15.5    6
c S   50.0     200      920   1146269   26138     26   201  29 10.2  15.2    4
c S   60.1     198      912   1314136   27505     91   211  29 10.1  14.9    6
c 
c  seconds         irredundant          redundant clauses agility   height
c          variables clauses conflicts large ternary binary    glue         MB
c 
s UNSATISFIABLE
c
c    0.246   0% simplifying
c   83.261 100% search
c ==================================
c   83.507 100% all
c 
c 2175363 decisions, 26050.2 decisions/sec
c 1621823 conflicts, 19421.5 conflicts/sec
c 41491202 propagations, 0.5 megaprops/sec
c 83.5 seconds, 12.1 MB
